id: 1154
name: neos-476283
group: miplib2010
method: 1

Gurobi 7.0.2 (linux64, Matlab) logging started Fri Apr 20 03:03:48 2018


Gurobi 7.0.2 (linux64) logging started Fri Apr 20 03:03:48 2018

Optimize a model with 10015 rows, 11915 columns and 3945693 nonzeros
Coefficient statistics:
  Matrix range     [2e-04, 1e+04]
  Objective range  [1e+00, 1e+00]
  Bounds range     [1e+00, 1e+00]
  RHS range        [6e-02, 2e+03]
Presolve removed 5703 rows and 5387 columns
Presolve time: 1.46s
Presolved: 4312 rows, 6528 columns, 3924503 nonzeros

Iteration    Objective       Primal Inf.    Dual Inf.      Time
       0      handle free variables                          1s
    2256    4.0624471e+02   0.000000e+00   0.000000e+00      2s

Solved in 2256 iterations and 2.08 seconds
Optimal objective  4.062447078e+02
status: OPTIMAL
